
  32    4
  10   10   10   10

   0   0   0   0   0   1 2 
   8  10  10  10  10   2 5 3 
   3  10  10  10  10   2 7 4 
   2  10  10  10  10   1 6 
   5  10  10  10  10   1 6 
   7  10  10  10  10   2 9 8 
   8  10  10  10  10   2 9 8 
   1  10  10  10  10   1 10 
   1  10  10  10  10   1 10 
   8  10  10  10  10   1 11 
   9  10  10  10  10   1 12 
  10  10  10  10  10   1 13 
   9  10  10  10  10   2 15 14 
  10  10  10  10  10   1 16 
   5  10  10  10  10   1 16 
   8  10  10  10  10   1 17 
   2  10  10  10  10   1 18 
  10  10  10  10  10   1 19 
   7  10  10  10  10   1 20 
   6  10  10  10  10   2 25 21 
   3  10  10  10  10   1 22 
   1  10  10  10  10   1 23 
  10  10  10  10  10   1 24 
   5  10  10  10  10   1 26 
   3  10  10  10  10   1 26 
   6  10  10  10  10   1 27 
   7  10  10  10  10   2 29 28 
   7  10  10  10  10   1 30 
  10  10  10  10  10   1 30 
   7  10  10  10  10   1 31 
   8  10  10  10  10   1 32
   0   0   0   0   0   0 
